115941
0
75
2
1
23
22
21
25
24
46
45
44
48
47
69
68
67
70
50
49
27
26
4
3
8
7
6
9
10
5
20
19
31
30
29
32
33
28
43
42
54
53
52
55
56
51
66
65
73
72
71
64
63
57
62
61
58
59
60
41
40
34
39
38
35
36
37
18
17
11
16
15
12
13
14
74
